<instance format="XCSP3" type="COP">
  <variables>
    <var id="x" note="x is the number of unused bins"> 0..23 </var>
    <array id="b" note="b[i][j] indicates the weight of the jth object put in the ith bin. It is 0 if there is no object at this place." size="[23][3]"> 0 250..253 255 256 258 263 264 266..270 274 275 279 280 282 284 296 300 308 314 315 329 334 354 382 402 408 412 429 432 436 439 444 450 455 478 480..482 492 497 498 </array>
  </variables>
  <constraints>
    <group>
      <mdd>
        <list> %... </list>
        <transitions> (root,0,n3)(root,250,n5)(root,251,n6)(root,252,n8)(root,253,n10)(root,255,n13)(root,256,n14)(root,258,n16)(root,263,n17)(root,264,n20)(root,266,n20)(root,267,n23)(root,268,n24)(root,269,n26)(root,270,n28)(root,274,n30)(root,275,n33)(root,279,n35)(root,280,n37)(root,282,n39)(root,284,n41)(root,296,n43)(root,300,n44)(root,308,n46)(root,314,n48)(root,315,n51)(root,329,n53)(root,334,n54)(root,354,n56)(root,382,n57)(root,402,n58)(root,408,n59)(root,412,n60)(root,429,n61)(root,432,n62)(root,436,n63)(root,439,n64)(root,444,n65)(root,450,n66)(root,455,n67)(root,478,n68)(root,480,n69)(root,481,n70)(root,482,n71)(root,492,n72)(root,497,n73)(root,498,n74)(n3,0,n4)(n4,0,nodeT)(n5,0,n4)(n5,250,n4)(n6,0,n4)(n6,250,n7)(n7,0,nodeT)(n7,250,nodeT)(n8,0,n4)(n8,250,n7)(n8,251,n7)(n8,252,n9)(n9,0,nodeT)(n9,250,nodeT)(n9,251,nodeT)(n10,0,n4)(n10,250,n7)(n10,251,n7)(n10,252,n11)(n10,253,n12)(n11,0,nodeT)(n11,250,nodeT)(n11,251,nodeT)(n11,252,nodeT)(n12,0,nodeT)(n12,250,nodeT)(n12,251,nodeT)(n12,252,nodeT)(n12,253,nodeT)(n13,0,n4)(n13,250,n7)(n13,251,n7)(n13,252,n11)(n13,253,n12)(n13,255,n12)(n14,0,n4)(n14,250,n7)(n14,251,n7)(n14,252,n11)(n14,253,n12)(n14,255,n15)(n15,0,nodeT)(n15,250,nodeT)(n15,251,nodeT)(n15,252,nodeT)(n15,253,nodeT)(n15,255,nodeT)(n16,0,n4)(n16,250,n7)(n16,251,n7)(n16,252,n11)(n16,253,n12)(n16,255,n15)(n16,256,n15)(n17,0,n4)(n17,250,n7)(n17,251,n7)(n17,252,n11)(n17,253,n12)(n17,255,n15)(n17,256,n15)(n17,258,n18)(n17,263,n19)(n18,0,nodeT)(n18,250,nodeT)(n18,251,nodeT)(n18,252,nodeT)(n18,253,nodeT)(n18,255,nodeT)(n18,256,nodeT)(n19,0,nodeT)(n19,250,nodeT)(n19,251,nodeT)(n19,252,nodeT)(n19,253,nodeT)(n19,255,nodeT)(n19,256,nodeT)(n19,258,nodeT)(n20,0,n4)(n20,250,n7)(n20,251,n7)(n20,252,n11)(n20,253,n12)(n20,255,n15)(n20,256,n15)(n20,258,n18)(n20,263,n21)(n20,264,n22)(n21,0,nodeT)(n21,250,nodeT)(n21,251,nodeT)(n21,252,nodeT)(n21,253,nodeT)(n21,255,nodeT)(n21,256,nodeT)(n21,258,nodeT)(n21,263,nodeT)(n22,0,nodeT)(n22,250,nodeT)(n22,251,nodeT)(n22,252,nodeT)(n22,253,nodeT)(n22,255,nodeT)(n22,256,nodeT)(n22,258,nodeT)(n22,263,nodeT)(n22,264,nodeT)(n23,0,n4)(n23,250,n7)(n23,251,n7)(n23,252,n11)(n23,253,n12)(n23,255,n15)(n23,256,n15)(n23,258,n18)(n23,263,n21)(n23,264,n22)(n23,266,n22)(n24,0,n4)(n24,250,n7)(n24,251,n7)(n24,252,n11)(n24,253,n12)(n24,255,n15)(n24,256,n15)(n24,258,n18)(n24,263,n21)(n24,264,n22)(n24,266,n22)(n24,267,n25)(n25,0,nodeT)(n25,250,nodeT)(n25,251,nodeT)(n25,252,nodeT)(n25,253,nodeT)(n25,255,nodeT)(n25,256,nodeT)(n25,258,nodeT)(n25,263,nodeT)(n25,264,nodeT)(n25,266,nodeT)(n26,0,n4)(n26,250,n7)(n26,251,n7)(n26,252,n11)(n26,253,n12)(n26,255,n15)(n26,256,n15)(n26,258,n18)(n26,263,n21)(n26,264,n22)(n26,266,n22)(n26,267,n25)(n26,268,n27)(n27,0,nodeT)(n27,250,nodeT)(n27,251,nodeT)(n27,252,nodeT)(n27,253,nodeT)(n27,255,nodeT)(n27,256,nodeT)(n27,258,nodeT)(n27,263,nodeT)(n27,264,nodeT)(n27,266,nodeT)(n27,267,nodeT)(n28,0,n4)(n28,250,n7)(n28,251,n7)(n28,252,n11)(n28,253,n12)(n28,255,n15)(n28,256,n15)(n28,258,n18)(n28,263,n21)(n28,264,n22)(n28,266,n22)(n28,267,n25)(n28,268,n27)(n28,269,n29)(n29,0,nodeT)(n29,250,nodeT)(n29,251,nodeT)(n29,252,nodeT)(n29,253,nodeT)(n29,255,nodeT)(n29,256,nodeT)(n29,258,nodeT)(n29,263,nodeT)(n29,264,nodeT)(n29,266,nodeT)(n29,267,nodeT)(n29,268,nodeT)(n30,0,n4)(n30,250,n7)(n30,251,n7)(n30,252,n11)(n30,253,n12)(n30,255,n15)(n30,256,n15)(n30,258,n18)(n30,263,n21)(n30,264,n22)(n30,266,n22)(n30,267,n25)(n30,268,n27)(n30,269,n29)(n30,270,n31)(n30,274,n32)(n31,0,nodeT)(n31,250,nodeT)(n31,251,nodeT)(n31,252,nodeT)(n31,253,nodeT)(n31,255,nodeT)(n31,256,nodeT)(n31,258,nodeT)(n31,263,nodeT)(n31,264,nodeT)(n31,266,nodeT)(n31,267,nodeT)(n31,268,nodeT)(n31,269,nodeT)(n32,0,nodeT)(n32,250,nodeT)(n32,251,nodeT)(n32,252,nodeT)(n32,253,nodeT)(n32,255,nodeT)(n32,256,nodeT)(n32,258,nodeT)(n32,263,nodeT)(n32,264,nodeT)(n32,266,nodeT)(n32,267,nodeT)(n32,268,nodeT)(n32,269,nodeT)(n32,270,nodeT)(n33,0,n4)(n33,250,n7)(n33,251,n7)(n33,252,n11)(n33,253,n12)(n33,255,n15)(n33,256,n15)(n33,258,n18)(n33,263,n21)(n33,264,n22)(n33,266,n22)(n33,267,n25)(n33,268,n27)(n33,269,n29)(n33,270,n31)(n33,274,n34)(n34,0,nodeT)(n34,250,nodeT)(n34,251,nodeT)(n34,252,nodeT)(n34,253,nodeT)(n34,255,nodeT)(n34,256,nodeT)(n34,258,nodeT)(n34,263,nodeT)(n34,264,nodeT)(n34,266,nodeT)(n34,267,nodeT)(n34,268,nodeT)(n34,269,nodeT)(n34,270,nodeT)(n34,274,nodeT)(n35,0,n4)(n35,250,n7)(n35,251,n7)(n35,252,n11)(n35,253,n12)(n35,255,n15)(n35,256,n15)(n35,258,n18)(n35,263,n21)(n35,264,n22)(n35,266,n22)(n35,267,n25)(n35,268,n27)(n35,269,n29)(n35,270,n31)(n35,274,n34)(n35,275,n34)(n35,279,n36)(n36,0,nodeT)(n36,250,nodeT)(n36,251,nodeT)(n36,252,nodeT)(n36,253,nodeT)(n36,255,nodeT)(n36,256,nodeT)(n36,258,nodeT)(n36,263,nodeT)(n36,264,nodeT)(n36,266,nodeT)(n36,267,nodeT)(n36,268,nodeT)(n36,269,nodeT)(n36,270,nodeT)(n36,274,nodeT)(n36,275,nodeT)(n37,0,n4)(n37,250,n7)(n37,251,n7)(n37,252,n11)(n37,253,n12)(n37,255,n15)(n37,256,n15)(n37,258,n18)(n37,263,n21)(n37,264,n22)(n37,266,n22)(n37,267,n25)(n37,268,n27)(n37,269,n29)(n37,270,n31)(n37,274,n34)(n37,275,n34)(n37,279,n38)(n38,0,nodeT)(n38,250,nodeT)(n38,251,nodeT)(n38,252,nodeT)(n38,253,nodeT)(n38,255,nodeT)(n38,256,nodeT)(n38,258,nodeT)(n38,263,nodeT)(n38,264,nodeT)(n38,266,nodeT)(n38,267,nodeT)(n38,268,nodeT)(n38,269,nodeT)(n38,270,nodeT)(n38,274,nodeT)(n38,275,nodeT)(n38,279,nodeT)(n39,0,n4)(n39,250,n7)(n39,251,n7)(n39,252,n11)(n39,253,n12)(n39,255,n15)(n39,256,n15)(n39,258,n18)(n39,263,n21)(n39,264,n22)(n39,266,n22)(n39,267,n25)(n39,268,n27)(n39,269,n29)(n39,270,n31)(n39,274,n34)(n39,275,n34)(n39,279,n38)(n39,280,n38)(n39,282,n40)(n40,0,nodeT)(n40,250,nodeT)(n40,251,nodeT)(n40,252,nodeT)(n40,253,nodeT)(n40,255,nodeT)(n40,256,nodeT)(n40,258,nodeT)(n40,263,nodeT)(n40,264,nodeT)(n40,266,nodeT)(n40,267,nodeT)(n40,268,nodeT)(n40,269,nodeT)(n40,270,nodeT)(n40,274,nodeT)(n40,275,nodeT)(n40,279,nodeT)(n40,280,nodeT)(n41,0,n4)(n41,250,n7)(n41,251,n7)(n41,252,n11)(n41,253,n12)(n41,255,n15)(n41,256,n15)(n41,258,n18)(n41,263,n21)(n41,264,n22)(n41,266,n22)(n41,267,n25)(n41,268,n27)(n41,269,n29)(n41,270,n31)(n41,274,n34)(n41,275,n34)(n41,279,n38)(n41,280,n38)(n41,282,n42)(n42,0,nodeT)(n42,250,nodeT)(n42,251,nodeT)(n42,252,nodeT)(n42,253,nodeT)(n42,255,nodeT)(n42,256,nodeT)(n42,258,nodeT)(n42,263,nodeT)(n42,264,nodeT)(n42,266,nodeT)(n42,267,nodeT)(n42,268,nodeT)(n42,269,nodeT)(n42,270,nodeT)(n42,274,nodeT)(n42,275,nodeT)(n42,279,nodeT)(n42,280,nodeT)(n42,282,nodeT)(n43,0,n4)(n43,250,n7)(n43,251,n7)(n43,252,n11)(n43,253,n12)(n43,255,n15)(n43,256,n15)(n43,258,n18)(n43,263,n21)(n43,264,n22)(n43,266,n22)(n43,267,n25)(n43,268,n27)(n43,269,n29)(n43,270,n31)(n43,274,n34)(n43,275,n34)(n43,279,n38)(n43,280,n38)(n43,282,n42)(n43,284,n42)(n44,0,n4)(n44,250,n7)(n44,251,n7)(n44,252,n11)(n44,253,n12)(n44,255,n15)(n44,256,n15)(n44,258,n18)(n44,263,n21)(n44,264,n22)(n44,266,n22)(n44,267,n25)(n44,268,n27)(n44,269,n29)(n44,270,n31)(n44,274,n34)(n44,275,n34)(n44,279,n38)(n44,280,n38)(n44,282,n42)(n44,284,n42)(n44,296,n45)(n45,0,nodeT)(n45,250,nodeT)(n45,251,nodeT)(n45,252,nodeT)(n45,253,nodeT)(n45,255,nodeT)(n45,256,nodeT)(n45,258,nodeT)(n45,263,nodeT)(n45,264,nodeT)(n45,266,nodeT)(n45,267,nodeT)(n45,268,nodeT)(n45,269,nodeT)(n45,270,nodeT)(n45,274,nodeT)(n45,275,nodeT)(n45,279,nodeT)(n45,280,nodeT)(n45,282,nodeT)(n45,284,nodeT)(n46,0,n4)(n46,250,n7)(n46,251,n7)(n46,252,n11)(n46,253,n12)(n46,255,n15)(n46,256,n15)(n46,258,n18)(n46,263,n21)(n46,264,n22)(n46,266,n22)(n46,267,n25)(n46,268,n27)(n46,269,n29)(n46,270,n31)(n46,274,n34)(n46,275,n34)(n46,279,n38)(n46,280,n38)(n46,282,n42)(n46,284,n42)(n46,296,n45)(n46,300,n47)(n47,0,nodeT)(n47,250,nodeT)(n47,251,nodeT)(n47,252,nodeT)(n47,253,nodeT)(n47,255,nodeT)(n47,256,nodeT)(n47,258,nodeT)(n47,263,nodeT)(n47,264,nodeT)(n47,266,nodeT)(n47,267,nodeT)(n47,268,nodeT)(n47,269,nodeT)(n47,270,nodeT)(n47,274,nodeT)(n47,275,nodeT)(n47,279,nodeT)(n47,280,nodeT)(n47,282,nodeT)(n47,284,nodeT)(n47,296,nodeT)(n48,0,n4)(n48,250,n7)(n48,251,n7)(n48,252,n11)(n48,253,n12)(n48,255,n15)(n48,256,n15)(n48,258,n18)(n48,263,n21)(n48,264,n22)(n48,266,n22)(n48,267,n25)(n48,268,n27)(n48,269,n29)(n48,270,n31)(n48,274,n34)(n48,275,n34)(n48,279,n38)(n48,280,n38)(n48,282,n42)(n48,284,n42)(n48,296,n45)(n48,300,n47)(n48,308,n49)(n48,314,n50)(n49,0,nodeT)(n49,250,nodeT)(n49,251,nodeT)(n49,252,nodeT)(n49,253,nodeT)(n49,255,nodeT)(n49,256,nodeT)(n49,258,nodeT)(n49,263,nodeT)(n49,264,nodeT)(n49,266,nodeT)(n49,267,nodeT)(n49,268,nodeT)(n49,269,nodeT)(n49,270,nodeT)(n49,274,nodeT)(n49,275,nodeT)(n49,279,nodeT)(n49,280,nodeT)(n49,282,nodeT)(n49,284,nodeT)(n49,296,nodeT)(n49,300,nodeT)(n50,0,nodeT)(n50,250,nodeT)(n50,251,nodeT)(n50,252,nodeT)(n50,253,nodeT)(n50,255,nodeT)(n50,256,nodeT)(n50,258,nodeT)(n50,263,nodeT)(n50,264,nodeT)(n50,266,nodeT)(n50,267,nodeT)(n50,268,nodeT)(n50,269,nodeT)(n50,270,nodeT)(n50,274,nodeT)(n50,275,nodeT)(n50,279,nodeT)(n50,280,nodeT)(n50,282,nodeT)(n50,284,nodeT)(n50,296,nodeT)(n50,300,nodeT)(n50,308,nodeT)(n51,0,n4)(n51,250,n7)(n51,251,n7)(n51,252,n11)(n51,253,n12)(n51,255,n15)(n51,256,n15)(n51,258,n18)(n51,263,n21)(n51,264,n22)(n51,266,n22)(n51,267,n25)(n51,268,n27)(n51,269,n29)(n51,270,n31)(n51,274,n34)(n51,275,n34)(n51,279,n38)(n51,280,n38)(n51,282,n42)(n51,284,n42)(n51,296,n45)(n51,300,n47)(n51,308,n49)(n51,314,n52)(n52,0,nodeT)(n52,250,nodeT)(n52,251,nodeT)(n52,252,nodeT)(n52,253,nodeT)(n52,255,nodeT)(n52,256,nodeT)(n52,258,nodeT)(n52,263,nodeT)(n52,264,nodeT)(n52,266,nodeT)(n52,267,nodeT)(n52,268,nodeT)(n52,269,nodeT)(n52,270,nodeT)(n52,274,nodeT)(n52,275,nodeT)(n52,279,nodeT)(n52,280,nodeT)(n52,282,nodeT)(n52,284,nodeT)(n52,296,nodeT)(n52,300,nodeT)(n52,308,nodeT)(n52,314,nodeT)(n53,0,n4)(n53,250,n7)(n53,251,n7)(n53,252,n11)(n53,253,n12)(n53,255,n15)(n53,256,n15)(n53,258,n18)(n53,263,n21)(n53,264,n22)(n53,266,n22)(n53,267,n25)(n53,268,n27)(n53,269,n29)(n53,270,n31)(n53,274,n34)(n53,275,n34)(n53,279,n38)(n53,280,n38)(n53,282,n42)(n53,284,n42)(n53,296,n45)(n53,300,n47)(n53,308,n49)(n53,314,n52)(n53,315,n52)(n54,0,n4)(n54,250,n7)(n54,251,n7)(n54,252,n11)(n54,253,n12)(n54,255,n15)(n54,256,n15)(n54,258,n18)(n54,263,n21)(n54,264,n22)(n54,266,n22)(n54,267,n25)(n54,268,n27)(n54,269,n29)(n54,270,n31)(n54,274,n34)(n54,275,n34)(n54,279,n38)(n54,280,n38)(n54,282,n42)(n54,284,n42)(n54,296,n45)(n54,300,n47)(n54,308,n49)(n54,314,n52)(n54,315,n52)(n54,329,n55)(n55,0,nodeT)(n55,250,nodeT)(n55,251,nodeT)(n55,252,nodeT)(n55,253,nodeT)(n55,255,nodeT)(n55,256,nodeT)(n55,258,nodeT)(n55,263,nodeT)(n55,264,nodeT)(n55,266,nodeT)(n55,267,nodeT)(n55,268,nodeT)(n55,269,nodeT)(n55,270,nodeT)(n55,274,nodeT)(n55,275,nodeT)(n55,279,nodeT)(n55,280,nodeT)(n55,282,nodeT)(n55,284,nodeT)(n55,296,nodeT)(n55,300,nodeT)(n55,308,nodeT)(n55,314,nodeT)(n55,315,nodeT)(n56,0,n4)(n56,250,n7)(n56,251,n7)(n56,252,n11)(n56,253,n12)(n56,255,n15)(n56,256,n15)(n56,258,n18)(n56,263,n21)(n56,264,n22)(n56,266,n22)(n56,267,n25)(n56,268,n27)(n56,269,n29)(n56,270,n31)(n56,274,n34)(n56,275,n34)(n56,279,n38)(n56,280,n38)(n56,282,n42)(n56,284,n42)(n56,296,n45)(n56,300,n47)(n56,308,n49)(n56,314,n52)(n56,315,n52)(n56,329,n55)(n56,334,n50)(n57,0,n4)(n57,250,n7)(n57,251,n7)(n57,252,n11)(n57,253,n12)(n57,255,n15)(n57,256,n15)(n57,258,n18)(n57,263,n21)(n57,264,n22)(n57,266,n22)(n57,267,n25)(n57,268,n27)(n57,269,n29)(n57,270,n31)(n57,274,n34)(n57,275,n34)(n57,279,n38)(n57,280,n38)(n57,282,n42)(n57,284,n42)(n57,296,n45)(n57,300,n47)(n57,308,n49)(n57,314,n49)(n57,315,n49)(n57,329,n45)(n57,334,n45)(n57,354,n22)(n58,0,n4)(n58,250,n7)(n58,251,n7)(n58,252,n11)(n58,253,n12)(n58,255,n15)(n58,256,n15)(n58,258,n18)(n58,263,n21)(n58,264,n22)(n58,266,n22)(n58,267,n25)(n58,268,n27)(n58,269,n29)(n58,270,n31)(n58,274,n34)(n58,275,n34)(n58,279,n38)(n58,280,n38)(n58,282,n42)(n58,284,n42)(n58,296,n45)(n58,300,n47)(n58,308,n45)(n58,314,n45)(n58,315,n42)(n58,329,n31)(n58,334,n22)(n58,354,n4)(n58,382,n4)(n58,402,n4)(n59,0,n4)(n59,250,n7)(n59,251,n7)(n59,252,n11)(n59,253,n12)(n59,255,n15)(n59,256,n15)(n59,258,n18)(n59,263,n21)(n59,264,n22)(n59,266,n22)(n59,267,n25)(n59,268,n27)(n59,269,n29)(n59,270,n31)(n59,274,n34)(n59,275,n34)(n59,279,n38)(n59,280,n38)(n59,282,n42)(n59,284,n42)(n59,296,n45)(n59,300,n45)(n59,308,n45)(n59,314,n36)(n59,315,n36)(n59,329,n21)(n59,334,n19)(n59,354,n4)(n59,382,n4)(n59,402,n4)(n60,0,n4)(n60,250,n7)(n60,251,n7)(n60,252,n11)(n60,253,n12)(n60,255,n15)(n60,256,n15)(n60,258,n18)(n60,263,n21)(n60,264,n22)(n60,266,n22)(n60,267,n25)(n60,268,n27)(n60,269,n29)(n60,270,n31)(n60,274,n34)(n60,275,n34)(n60,279,n38)(n60,280,n38)(n60,282,n42)(n60,284,n42)(n60,296,n45)(n60,300,n45)(n60,308,n40)(n60,314,n34)(n60,315,n32)(n60,329,n19)(n60,334,n12)(n60,354,n4)(n60,382,n4)(n60,402,n4)(n60,408,n4)(n61,0,n4)(n61,250,n7)(n61,251,n7)(n61,252,n11)(n61,253,n12)(n61,255,n15)(n61,256,n15)(n61,258,n18)(n61,263,n21)(n61,264,n22)(n61,266,n22)(n61,267,n25)(n61,268,n27)(n61,269,n29)(n61,270,n31)(n61,274,n34)(n61,275,n34)(n61,279,n38)(n61,280,n38)(n61,282,n42)(n61,284,n42)(n61,296,n36)(n61,300,n32)(n61,308,n21)(n61,314,n18)(n61,315,n18)(n61,329,n4)(n61,334,n4)(n61,354,n4)(n61,382,n4)(n61,402,n4)(n61,408,n4)(n61,412,n4)(n62,0,n4)(n62,250,n7)(n62,251,n7)(n62,252,n11)(n62,253,n12)(n62,255,n15)(n62,256,n15)(n62,258,n18)(n62,263,n21)(n62,264,n22)(n62,266,n22)(n62,267,n25)(n62,268,n27)(n62,269,n29)(n62,270,n31)(n62,274,n34)(n62,275,n34)(n62,279,n38)(n62,280,n38)(n62,282,n42)(n62,284,n42)(n62,296,n32)(n62,300,n29)(n62,308,n19)(n62,314,n12)(n62,315,n12)(n62,329,n4)(n62,334,n4)(n62,354,n4)(n62,382,n4)(n62,402,n4)(n62,408,n4)(n62,412,n4)(n62,429,n4)(n62,432,n4)(n63,0,n4)(n63,250,n7)(n63,251,n7)(n63,252,n11)(n63,253,n12)(n63,255,n15)(n63,256,n15)(n63,258,n18)(n63,263,n21)(n63,264,n22)(n63,266,n22)(n63,267,n25)(n63,268,n27)(n63,269,n29)(n63,270,n31)(n63,274,n34)(n63,275,n34)(n63,279,n38)(n63,280,n38)(n63,282,n42)(n63,284,n40)(n63,296,n29)(n63,300,n22)(n63,308,n18)(n63,314,n7)(n63,315,n4)(n63,329,n4)(n63,334,n4)(n63,354,n4)(n63,382,n4)(n63,402,n4)(n63,408,n4)(n63,412,n4)(n63,429,n4)(n63,432,n4)(n64,0,n4)(n64,250,n7)(n64,251,n7)(n64,252,n11)(n64,253,n12)(n64,255,n15)(n64,256,n15)(n64,258,n18)(n64,263,n21)(n64,264,n22)(n64,266,n22)(n64,267,n25)(n64,268,n27)(n64,269,n29)(n64,270,n31)(n64,274,n34)(n64,275,n34)(n64,279,n38)(n64,280,n38)(n64,282,n38)(n64,284,n36)(n64,296,n22)(n64,300,n19)(n64,308,n12)(n64,314,n4)(n64,315,n4)(n64,329,n4)(n64,334,n4)(n64,354,n4)(n64,382,n4)(n64,402,n4)(n64,408,n4)(n64,412,n4)(n64,429,n4)(n64,432,n4)(n64,436,n4)(n65,0,n4)(n65,250,n7)(n65,251,n7)(n65,252,n11)(n65,253,n12)(n65,255,n15)(n65,256,n15)(n65,258,n18)(n65,263,n21)(n65,264,n22)(n65,266,n22)(n65,267,n25)(n65,268,n27)(n65,269,n29)(n65,270,n31)(n65,274,n34)(n65,275,n34)(n65,279,n36)(n65,280,n36)(n65,282,n34)(n65,284,n32)(n65,296,n19)(n65,300,n18)(n65,308,n4)(n65,314,n4)(n65,315,n4)(n65,329,n4)(n65,334,n4)(n65,354,n4)(n65,382,n4)(n65,402,n4)(n65,408,n4)(n65,412,n4)(n65,429,n4)(n65,432,n4)(n65,436,n4)(n65,439,n4)(n66,0,n4)(n66,250,n7)(n66,251,n7)(n66,252,n11)(n66,253,n12)(n66,255,n15)(n66,256,n15)(n66,258,n18)(n66,263,n21)(n66,264,n22)(n66,266,n22)(n66,267,n25)(n66,268,n27)(n66,269,n29)(n66,270,n31)(n66,274,n34)(n66,275,n34)(n66,279,n32)(n66,280,n32)(n66,282,n29)(n66,284,n25)(n66,296,n12)(n66,300,n7)(n66,308,n4)(n66,314,n4)(n66,315,n4)(n66,329,n4)(n66,334,n4)(n66,354,n4)(n66,382,n4)(n66,402,n4)(n66,408,n4)(n66,412,n4)(n66,429,n4)(n66,432,n4)(n66,436,n4)(n66,439,n4)(n66,444,n4)(n67,0,n4)(n67,250,n7)(n67,251,n7)(n67,252,n11)(n67,253,n12)(n67,255,n15)(n67,256,n15)(n67,258,n18)(n67,263,n21)(n67,264,n22)(n67,266,n22)(n67,267,n25)(n67,268,n27)(n67,269,n29)(n67,270,n31)(n67,274,n32)(n67,275,n32)(n67,279,n25)(n67,280,n22)(n67,282,n21)(n67,284,n19)(n67,296,n4)(n67,300,n4)(n67,308,n4)(n67,314,n4)(n67,315,n4)(n67,329,n4)(n67,334,n4)(n67,354,n4)(n67,382,n4)(n67,402,n4)(n67,408,n4)(n67,412,n4)(n67,429,n4)(n67,432,n4)(n67,436,n4)(n67,439,n4)(n67,444,n4)(n67,450,n4)(n68,0,n4)(n68,250,n7)(n68,251,n7)(n68,252,n11)(n68,253,n12)(n68,255,n15)(n68,256,n15)(n68,258,n18)(n68,263,n19)(n68,264,n19)(n68,266,n18)(n68,267,n15)(n68,268,n12)(n68,269,n12)(n68,270,n11)(n68,274,n4)(n68,275,n4)(n68,279,n4)(n68,280,n4)(n68,282,n4)(n68,284,n4)(n68,296,n4)(n68,300,n4)(n68,308,n4)(n68,314,n4)(n68,315,n4)(n68,329,n4)(n68,334,n4)(n68,354,n4)(n68,382,n4)(n68,402,n4)(n68,408,n4)(n68,412,n4)(n68,429,n4)(n68,432,n4)(n68,436,n4)(n68,439,n4)(n68,444,n4)(n68,450,n4)(n68,455,n4)(n69,0,n4)(n69,250,n7)(n69,251,n7)(n69,252,n11)(n69,253,n12)(n69,255,n15)(n69,256,n15)(n69,258,n18)(n69,263,n18)(n69,264,n18)(n69,266,n12)(n69,267,n12)(n69,268,n11)(n69,269,n9)(n69,270,n7)(n69,274,n4)(n69,275,n4)(n69,279,n4)(n69,280,n4)(n69,282,n4)(n69,284,n4)(n69,296,n4)(n69,300,n4)(n69,308,n4)(n69,314,n4)(n69,315,n4)(n69,329,n4)(n69,334,n4)(n69,354,n4)(n69,382,n4)(n69,402,n4)(n69,408,n4)(n69,412,n4)(n69,429,n4)(n69,432,n4)(n69,436,n4)(n69,439,n4)(n69,444,n4)(n69,450,n4)(n69,455,n4)(n69,478,n4)(n70,0,n4)(n70,250,n7)(n70,251,n7)(n70,252,n11)(n70,253,n12)(n70,255,n15)(n70,256,n15)(n70,258,n18)(n70,263,n18)(n70,264,n15)(n70,266,n12)(n70,267,n11)(n70,268,n9)(n70,269,n7)(n70,270,n4)(n70,274,n4)(n70,275,n4)(n70,279,n4)(n70,280,n4)(n70,282,n4)(n70,284,n4)(n70,296,n4)(n70,300,n4)(n70,308,n4)(n70,314,n4)(n70,315,n4)(n70,329,n4)(n70,334,n4)(n70,354,n4)(n70,382,n4)(n70,402,n4)(n70,408,n4)(n70,412,n4)(n70,429,n4)(n70,432,n4)(n70,436,n4)(n70,439,n4)(n70,444,n4)(n70,450,n4)(n70,455,n4)(n70,478,n4)(n70,480,n4)(n71,0,n4)(n71,250,n7)(n71,251,n7)(n71,252,n11)(n71,253,n12)(n71,255,n15)(n71,256,n15)(n71,258,n18)(n71,263,n15)(n71,264,n12)(n71,266,n11)(n71,267,n9)(n71,268,n7)(n71,269,n4)(n71,270,n4)(n71,274,n4)(n71,275,n4)(n71,279,n4)(n71,280,n4)(n71,282,n4)(n71,284,n4)(n71,296,n4)(n71,300,n4)(n71,308,n4)(n71,314,n4)(n71,315,n4)(n71,329,n4)(n71,334,n4)(n71,354,n4)(n71,382,n4)(n71,402,n4)(n71,408,n4)(n71,412,n4)(n71,429,n4)(n71,432,n4)(n71,436,n4)(n71,439,n4)(n71,444,n4)(n71,450,n4)(n71,455,n4)(n71,478,n4)(n71,480,n4)(n71,481,n4)(n72,0,n4)(n72,250,n7)(n72,251,n7)(n72,252,n11)(n72,253,n12)(n72,255,n12)(n72,256,n11)(n72,258,n7)(n72,263,n4)(n72,264,n4)(n72,266,n4)(n72,267,n4)(n72,268,n4)(n72,269,n4)(n72,270,n4)(n72,274,n4)(n72,275,n4)(n72,279,n4)(n72,280,n4)(n72,282,n4)(n72,284,n4)(n72,296,n4)(n72,300,n4)(n72,308,n4)(n72,314,n4)(n72,315,n4)(n72,329,n4)(n72,334,n4)(n72,354,n4)(n72,382,n4)(n72,402,n4)(n72,408,n4)(n72,412,n4)(n72,429,n4)(n72,432,n4)(n72,436,n4)(n72,439,n4)(n72,444,n4)(n72,450,n4)(n72,455,n4)(n72,478,n4)(n72,480,n4)(n72,481,n4)(n72,482,n4)(n73,0,n4)(n73,250,n7)(n73,251,n7)(n73,252,n9)(n73,253,n7)(n73,255,n4)(n73,256,n4)(n73,258,n4)(n73,263,n4)(n73,264,n4)(n73,266,n4)(n73,267,n4)(n73,268,n4)(n73,269,n4)(n73,270,n4)(n73,274,n4)(n73,275,n4)(n73,279,n4)(n73,280,n4)(n73,282,n4)(n73,284,n4)(n73,296,n4)(n73,300,n4)(n73,308,n4)(n73,314,n4)(n73,315,n4)(n73,329,n4)(n73,334,n4)(n73,354,n4)(n73,382,n4)(n73,402,n4)(n73,408,n4)(n73,412,n4)(n73,429,n4)(n73,432,n4)(n73,436,n4)(n73,439,n4)(n73,444,n4)(n73,450,n4)(n73,455,n4)(n73,478,n4)(n73,480,n4)(n73,481,n4)(n73,482,n4)(n73,492,n4)(n74,0,n4)(n74,250,n7)(n74,251,n7)(n74,252,n7)(n74,253,n4)(n74,255,n4)(n74,256,n4)(n74,258,n4)(n74,263,n4)(n74,264,n4)(n74,266,n4)(n74,267,n4)(n74,268,n4)(n74,269,n4)(n74,270,n4)(n74,274,n4)(n74,275,n4)(n74,279,n4)(n74,280,n4)(n74,282,n4)(n74,284,n4)(n74,296,n4)(n74,300,n4)(n74,308,n4)(n74,314,n4)(n74,315,n4)(n74,329,n4)(n74,334,n4)(n74,354,n4)(n74,382,n4)(n74,402,n4)(n74,408,n4)(n74,412,n4)(n74,429,n4)(n74,432,n4)(n74,436,n4)(n74,439,n4)(n74,444,n4)(n74,450,n4)(n74,455,n4)(n74,478,n4)(n74,480,n4)(n74,481,n4)(n74,482,n4)(n74,492,n4)(n74,497,n4) </transitions>
      </mdd>
      <args> b[0][] </args>
      <args> b[1][] </args>
      <args> b[2][] </args>
      <args> b[3][] </args>
      <args> b[4][] </args>
      <args> b[5][] </args>
      <args> b[6][] </args>
      <args> b[7][] </args>
      <args> b[8][] </args>
      <args> b[9][] </args>
      <args> b[10][] </args>
      <args> b[11][] </args>
      <args> b[12][] </args>
      <args> b[13][] </args>
      <args> b[14][] </args>
      <args> b[15][] </args>
      <args> b[16][] </args>
      <args> b[17][] </args>
      <args> b[18][] </args>
      <args> b[19][] </args>
      <args> b[20][] </args>
      <args> b[21][] </args>
      <args> b[22][] </args>
    </group>
    <cardinality>
      <list> b[][] </list>
      <values> 0 250 251 252 253 255 256 258 263 264 266 267 268 269 270 274 275 279 280 282 284 296 300 308 314 315 329 334 354 382 402 408 412 429 432 436 439 444 450 455 478 480 481 482 492 497 498 </values>
      <occurs> 9 2 1 2 3 2 1 1 2 3 1 1 1 1 1 2 1 2 1 2 1 1 1 1 2 1 1 1 1 1 2 1 1 1 2 1 1 1 1 1 1 1 1 1 1 1 1 </occurs>
    </cardinality>
    <lex class="symmetryBreaking">
      <list> b[0][] </list>
      <list> b[1][] </list>
      <list> b[2][] </list>
      <list> b[3][] </list>
      <list> b[4][] </list>
      <list> b[5][] </list>
      <list> b[6][] </list>
      <list> b[7][] </list>
      <list> b[8][] </list>
      <list> b[9][] </list>
      <list> b[10][] </list>
      <list> b[11][] </list>
      <list> b[12][] </list>
      <list> b[13][] </list>
      <list> b[14][] </list>
      <list> b[15][] </list>
      <list> b[16][] </list>
      <list> b[17][] </list>
      <list> b[18][] </list>
      <list> b[19][] </list>
      <list> b[20][] </list>
      <list> b[21][] </list>
      <list> b[22][] </list>
      <operator> ge </operator>
    </lex>
    <count>
      <list> b[][0] </list>
      <values> 0 </values>
      <condition> (eq,x) </condition>
    </count>
  </constraints>
  <objectives>
    <maximize> x </maximize>
  </objectives>
</instance>
